(set-logic ALL)
(declare-const n_VAR Int)
(assert (not (<= n_VAR 0)))
(assert (not (= n_VAR 2)))
(assert (> n_VAR 2))
(assert (not (= (mod n_VAR 2) 0)))
(assert (not (= (mod n_VAR 3) 0)))
(assert (not (= (mod n_VAR 4) 0)))
(assert (not (= (mod n_VAR 5) 0)))
(assert (not (= (mod n_VAR 6) 0)))
(assert (not (= (mod n_VAR 7) 0)))
(assert (not (= (mod n_VAR 8) 0)))
(assert (not (= (mod n_VAR 9) 0)))
(assert (not (= (mod n_VAR 10) 0)))
(assert (not (= (mod n_VAR 11) 0)))
(assert (not (= (mod n_VAR 12) 0)))
(assert (not (= (mod n_VAR 13) 0)))
(assert (not (= (mod n_VAR 14) 0)))
(assert (not (= (mod n_VAR 15) 0)))
(assert (not (= (mod n_VAR 16) 0)))
(assert (not (= (mod n_VAR 17) 0)))
(assert (not (= (mod n_VAR 18) 0)))
(assert (not (= (mod n_VAR 19) 0)))
(assert (not (= (mod n_VAR 20) 0)))
(assert (not (= (mod n_VAR 21) 0)))
(assert (not (= (mod n_VAR 22) 0)))
(assert (not (= (mod n_VAR 23) 0)))
(assert (not (= (mod n_VAR 24) 0)))
(assert (not (= (mod n_VAR 25) 0)))
(assert (not (= (mod n_VAR 26) 0)))
(assert (not (= (mod n_VAR 27) 0)))
(assert (not (= (mod n_VAR 28) 0)))
(assert (not (= (mod n_VAR 29) 0)))
(assert (not (= (mod n_VAR 30) 0)))
(assert (not (= (mod n_VAR 31) 0)))
(assert (not (= (mod n_VAR 32) 0)))
(assert (not (= (mod n_VAR 33) 0)))
(assert (not (= (mod n_VAR 34) 0)))
(assert (not (= (mod n_VAR 35) 0)))
(assert (not (= (mod n_VAR 36) 0)))
(assert (not (= (mod n_VAR 37) 0)))
(assert (not (= (mod n_VAR 38) 0)))
(assert (not (= (mod n_VAR 39) 0)))
(assert (not (= (mod n_VAR 40) 0)))
(assert (not (= (mod n_VAR 41) 0)))
(assert (not (= (mod n_VAR 42) 0)))
(assert (not (= (mod n_VAR 43) 0)))
(assert (not (= (mod n_VAR 44) 0)))
(assert (not (= (mod n_VAR 45) 0)))
(assert (not (= (mod n_VAR 46) 0)))
(assert (not (= (mod n_VAR 47) 0)))
(assert (not (= (mod n_VAR 48) 0)))
(assert (not (= (mod n_VAR 49) 0)))
(assert (not (= (mod n_VAR 50) 0)))
(assert (not (= (mod n_VAR 51) 0)))
(assert (not (= (mod n_VAR 52) 0)))
(assert (not (= (mod n_VAR 53) 0)))
(assert (not (= (mod n_VAR 54) 0)))
(assert (not (= (mod n_VAR 55) 0)))
(assert (not (= (mod n_VAR 56) 0)))
(assert (not (= (mod n_VAR 57) 0)))
(assert (not (= (mod n_VAR 58) 0)))
(assert (not (= (mod n_VAR 59) 0)))
(assert (not (= (mod n_VAR 60) 0)))
(assert (not (= (mod n_VAR 61) 0)))
(assert (not (= (mod n_VAR 62) 0)))
(assert (not (= (mod n_VAR 63) 0)))
(assert (not (= (mod n_VAR 64) 0)))
(assert (not (= (mod n_VAR 65) 0)))
(assert (not (= (mod n_VAR 66) 0)))
(assert (not (= (mod n_VAR 67) 0)))
(assert (not (= (mod n_VAR 68) 0)))
(assert (not (= (mod n_VAR 69) 0)))
(assert (not (= (mod n_VAR 70) 0)))
(assert (not (= (mod n_VAR 71) 0)))
(assert (not (= (mod n_VAR 72) 0)))
(assert (not (= (mod n_VAR 73) 0)))
(assert (not (= (mod n_VAR 74) 0)))
(assert (not (= (mod n_VAR 75) 0)))
(assert (not (= (mod n_VAR 76) 0)))
(assert (not (= (mod n_VAR 77) 0)))
(assert (not (= (mod n_VAR 78) 0)))
(assert (not (= (mod n_VAR 79) 0)))
(assert (not (= (mod n_VAR 80) 0)))
(assert (not (= (mod n_VAR 81) 0)))
(assert (not (= (mod n_VAR 82) 0)))
(assert (not (= (mod n_VAR 83) 0)))
(assert (not (= (mod n_VAR 84) 0)))
(assert (not (= (mod n_VAR 85) 0)))
(assert (not (= (mod n_VAR 86) 0)))
(assert (not (= (mod n_VAR 87) 0)))
(assert (not (= (mod n_VAR 88) 0)))
(assert (not (= (mod n_VAR 89) 0)))
(assert (not (= (mod n_VAR 90) 0)))
(assert (not (= (mod n_VAR 91) 0)))
(assert (not (= (mod n_VAR 92) 0)))
(assert (not (= (mod n_VAR 93) 0)))
(assert (not (= (mod n_VAR 94) 0)))
(assert (not (= (mod n_VAR 95) 0)))
(assert (not (= (mod n_VAR 96) 0)))
(assert (not (= (mod n_VAR 97) 0)))
(assert (not (= (mod n_VAR 98) 0)))
(assert (not (= (mod n_VAR 99) 0)))
(assert (not (= (mod n_VAR 100) 0)))
(assert (not (= (mod n_VAR 101) 0)))
(assert (not (= (mod n_VAR 102) 0)))
(assert (not (= (mod n_VAR 103) 0)))
(assert (not (= (mod n_VAR 104) 0)))
(assert (not (= (mod n_VAR 105) 0)))
(assert (not (= (mod n_VAR 106) 0)))
(assert (not (= (mod n_VAR 107) 0)))
(assert (not (= (mod n_VAR 108) 0)))
(assert (not (= (mod n_VAR 109) 0)))
(assert (not (= (mod n_VAR 110) 0)))
(assert (not (= (mod n_VAR 111) 0)))
(assert (not (= (mod n_VAR 112) 0)))
(assert (not (= (mod n_VAR 113) 0)))
(assert (not (= (mod n_VAR 114) 0)))
(assert (not (= (mod n_VAR 115) 0)))
(assert (not (= (mod n_VAR 116) 0)))
(assert (not (= (mod n_VAR 117) 0)))
(assert (not (= (mod n_VAR 118) 0)))
(assert (not (= (mod n_VAR 119) 0)))
(assert (not (= (mod n_VAR 120) 0)))
(assert (not (= (mod n_VAR 121) 0)))
(assert (not (= (mod n_VAR 122) 0)))
(assert (not (= (mod n_VAR 123) 0)))
(assert (not (= (mod n_VAR 124) 0)))
(assert (not (= (mod n_VAR 125) 0)))
(assert (not (= (mod n_VAR 126) 0)))
(assert (not (= (mod n_VAR 127) 0)))
(assert (not (= (mod n_VAR 128) 0)))
(assert (not (= (mod n_VAR 129) 0)))
(assert (not (= (mod n_VAR 130) 0)))
(assert (not (= (mod n_VAR 131) 0)))
(assert (not (= (mod n_VAR 132) 0)))
(assert (not (= (mod n_VAR 133) 0)))
(assert (not (= (mod n_VAR 134) 0)))
(assert (not (= (mod n_VAR 135) 0)))
(assert (not (= (mod n_VAR 136) 0)))
(assert (not (= (mod n_VAR 137) 0)))
(assert (not (= (mod n_VAR 138) 0)))
(assert (not (= (mod n_VAR 139) 0)))
(assert (not (= (mod n_VAR 140) 0)))
(assert (not (= (mod n_VAR 141) 0)))
(assert (not (= (mod n_VAR 142) 0)))
(assert (not (= (mod n_VAR 143) 0)))
(assert (not (= (mod n_VAR 144) 0)))
(assert (not (= (mod n_VAR 145) 0)))
(assert (not (= (mod n_VAR 146) 0)))
(assert (not (= (mod n_VAR 147) 0)))
(assert (not (= (mod n_VAR 148) 0)))
(assert (not (= (mod n_VAR 149) 0)))
(assert (not (= (mod n_VAR 150) 0)))
(assert (not (= (mod n_VAR 151) 0)))
(assert (not (= (mod n_VAR 152) 0)))
(assert (not (= (mod n_VAR 153) 0)))
(assert (not (= (mod n_VAR 154) 0)))
(assert (not (= (mod n_VAR 155) 0)))
(assert (not (= (mod n_VAR 156) 0)))
(assert (not (= (mod n_VAR 157) 0)))
(assert (not (= (mod n_VAR 158) 0)))
(assert (not (= (mod n_VAR 159) 0)))
(assert (not (= (mod n_VAR 160) 0)))
(assert (not (= (mod n_VAR 161) 0)))
(assert (not (= (mod n_VAR 162) 0)))
(assert (not (= (mod n_VAR 163) 0)))
(assert (not (= (mod n_VAR 164) 0)))
(assert (not (= (mod n_VAR 165) 0)))
(assert (not (= (mod n_VAR 166) 0)))
(assert (not (= (mod n_VAR 167) 0)))
(assert (not (= (mod n_VAR 168) 0)))
(assert (not (= (mod n_VAR 169) 0)))
(assert (not (= (mod n_VAR 170) 0)))
(assert (not (= (mod n_VAR 171) 0)))
(assert (not (= (mod n_VAR 172) 0)))
(assert (not (= (mod n_VAR 173) 0)))
(assert (not (= (mod n_VAR 174) 0)))
(assert (not (= (mod n_VAR 175) 0)))
(assert (not (= (mod n_VAR 176) 0)))
(assert (not (= (mod n_VAR 177) 0)))
(assert (not (= (mod n_VAR 178) 0)))
(assert (not (= (mod n_VAR 179) 0)))
(assert (not (= (mod n_VAR 180) 0)))
(assert (not (= (mod n_VAR 181) 0)))
(assert (not (= (mod n_VAR 182) 0)))
(assert (not (= (mod n_VAR 183) 0)))
(assert (not (= (mod n_VAR 184) 0)))
(assert (not (= (mod n_VAR 185) 0)))
(assert (not (= (mod n_VAR 186) 0)))
(assert (not (= (mod n_VAR 187) 0)))
(assert (not (= (mod n_VAR 188) 0)))
(assert (not (= (mod n_VAR 189) 0)))
(assert (not (= (mod n_VAR 190) 0)))
(assert (not (= (mod n_VAR 191) 0)))
(assert (not (= (mod n_VAR 192) 0)))
(assert (not (= (mod n_VAR 193) 0)))
(assert (not (= (mod n_VAR 194) 0)))
(assert (not (= (mod n_VAR 195) 0)))
(assert (not (= (mod n_VAR 196) 0)))
(assert (not (= (mod n_VAR 197) 0)))
(assert (not (= (mod n_VAR 198) 0)))
(assert (not (= (mod n_VAR 199) 0)))
(assert (not (= (mod n_VAR 200) 0)))
(assert (not (= (mod n_VAR 201) 0)))
(assert (not (= (mod n_VAR 202) 0)))
(assert (not (= (mod n_VAR 203) 0)))
(assert (not (= (mod n_VAR 204) 0)))
(assert (not (= (mod n_VAR 205) 0)))
(assert (not (= (mod n_VAR 206) 0)))
(assert (not (= (mod n_VAR 207) 0)))
(assert (not (= (mod n_VAR 208) 0)))
(assert (not (= (mod n_VAR 209) 0)))
(assert (not (= (mod n_VAR 210) 0)))
(assert (not (= (mod n_VAR 211) 0)))
(assert (not (= (mod n_VAR 212) 0)))
(assert (not (= (mod n_VAR 213) 0)))
(assert (not (= (mod n_VAR 214) 0)))
(assert (not (not (= (mod n_VAR 215) 0))))
(check-sat)
(get-value (n_VAR))
